x = 12;
y = 13;
c = 69;
n = 18;

p = [64  49  89  35  11  75  63  54  13  66  13  50  24  22  35  33  20  21];
w = [9  4  7  1  1  5  6  10  4  1  10  7  2  5  9  7  3  7];
s = [12  2  4  2  10  2  11  7  6  5  4  2  10  2  2  12  11  3];
